(set-logic ALL)
(declare-fun var0 () String)
(assert (str.in_re var0 (re.++ (re.+ (re.+ (re.union (re.+ (re.union (re.* (re.* (str.to_re "0"))) (re.* (re.union (str.to_re "1") (str.to_re "22"))))) (re.+ (re.+ (re.union (re.union (str.to_re "33") (str.to_re "4")) (re.union (str.to_re "555") (str.to_re "666")))))))) (re.+ (re.* (re.* (re.union (re.union (re.* (re.* (str.to_re "77"))) (re.* (re.union (str.to_re "88") (str.to_re "99")))) (re.union (re.union (re.+ (str.to_re "aaa")) (re.+ (str.to_re "b"))) (re.union (re.* (str.to_re "cc")) (re.* (str.to_re "d")))))))))))
(assert (<= 15 (str.len var0)))
(check-sat)